WARNING: for repeatability, setting FPU to use double precision
============================[ Problem Statistics ]=============================
|                                                                             |
|  Number of variables:        185096                                         |
|  Number of clauses:          317558                                         |
|  Parse time:                   0.12 s                                       |
branch_file: └¦K
|  Eliminated clauses:           1.45 Mb                                      |
|  Simplification time:          0.29 s                                       |
|                                                                             |
===============================================================================
Solved by simplification
restarts              : 0
conflicts             : 0              (0 /sec)
decisions             : 0              (-nan % random) (0 /sec)
propagations          : 107149         (261312 /sec)
conflict literals     : 0              (-nan % deleted)
Memory used           : 61.19 MB
CPU time              : 0.410042 s

UNSATISFIABLE
